36
0 0
3 25
24
15
3 0
6 36
22
14
6 0
9 30
23
14
9 0
15 14
18
11
15 0
28 6
21
13
15 6
24 11
20
12
28 0
30 31
19
12
30 0
32 28
17
11
9 14
27 21
16
10
9 21
24 26
15
10
32 0
36 27
14
9
9 26
19 33
13
9
19 26
24 41
11
8
24 31
35 36
12
8
6 33
11 47
10
7
11 33
19 48
9
6
0 25
3 57
8
6
3 36
6 60
2
2
24 36
34 40
7
5
24 40
34 57
3
3
6 48
17 54
5
4
6 54
14 67
6
4
34 36
36 62
4
3
17 48
24 60
1
2
14 60
30 67
0
1
